c status 305 1469389697000
c status 59 1469389697008
c status 54 1469389697221
c status 53 1469389697266
c status 52 1469389697423
c status 51 1469389697865
c status 50 1469389698047
s td 130 50 309
b 1 113 224 1
b 2 14 3 2 299 288 1
b 3 147 3 25 125 2 299 288 47 58 136 1
b 4 202 3 25 125 158 180 213 2 299 288 47 58 136 169 191 1
b 5 9 4 7 309 241 240 2 299 225 288 47 58 136 169 191 243 287 1
b 6 10 4 7 309 241 240 2 299 225 288 47 58 136 169 191 243 287 1
b 7 11 4 7 309 241 240 2 299 225 288 47 58 136 169 191 243 287 1
b 8 13 4 309 241 240 2 299 225 288 47 58 136 169 191 243 287 1
b 9 239 240 2 299 225 288 47 58 136 169 191 1
b 10 242 241 240 2 299 225 288 47 58 136 169 191 1
b 11 246 241 240 2 299 225 288 47 58 136 169 191 243 1
b 12 247 241 240 2 299 225 288 47 58 136 169 191 243 1
b 13 250 241 240 2 299 225 288 47 58 136 169 191 243 1
b 14 251 241 240 2 299 225 288 47 58 136 169 191 243 1
b 15 253 241 240 2 299 225 288 47 58 136 169 191 243 1
b 16 254 241 240 2 299 225 288 47 58 136 169 191 243 1
b 17 257 241 240 2 299 225 288 47 58 136 169 191 243 1
b 18 258 241 240 2 299 225 288 47 58 136 169 191 243 1
b 19 274 275 241 240 2 299 225 288 47 58 136 169 191 243 1
b 20 280 278 275 281 241 240 2 299 225 288 47 58 136 169 191 243 1
b 21 278 276 275 281 282 241 240 2 299 225 288 47 58 136 169 191 243 1
b 22 283 285 275 281 282 241 240 2 299 225 288 47 58 136 169 191 243 1
b 23 298 241 240 2 299 225 288 47 58 136 169 191 243 287 1
b 24 300 241 240 2 299 225 288 47 58 136 169 191 243 287 1
b 25 307 241 240 2 299 225 288 47 58 136 169 191 243 287 1
b 26 39 40 241 2 299 21 225 288 47 58 136 169 191 243 287 1
b 27 43 241 2 299 21 225 288 47 58 136 169 191 243 287 1
b 28 45 241 2 299 21 225 288 47 58 136 169 191 243 287 1
b 29 46 241 2 299 21 225 288 47 58 136 169 191 243 287 1
b 30 49 241 2 299 21 225 288 47 58 136 169 191 243 287 1
b 31 241 240 221 222 2 299 21 214 225 288 47 58 136 169 191 243 287 1
b 32 100 98 84 96 101 57 2 299 21 225 288 47 58 136 169 191 243 287 1
b 33 98 99 84 96 101 57 2 299 21 225 288 47 58 136 169 191 243 287 1
b 34 106 104 84 96 101 57 2 299 21 225 288 47 58 136 169 191 243 287 1
b 35 104 105 84 96 101 57 2 299 21 225 288 47 58 136 169 191 243 287 1
b 36 110 111 109 84 96 57 107 2 299 21 225 288 47 58 136 169 191 243 287 1
b 37 115 109 84 96 57 107 2 299 21 225 288 47 58 136 169 191 243 287 1
b 38 116 117 109 84 96 57 107 2 299 21 225 288 47 58 136 169 191 243 287 1
b 39 84 96 101 57 107 2 299 21 225 288 47 58 136 169 191 243 287 1
b 40 129 135 127 57 107 2 299 21 225 288 47 58 136 169 191 243 287 1
b 41 137 138 127 57 107 2 299 21 225 288 47 58 136 169 191 243 287 1
b 42 150 162 163 57 107 2 299 21 225 288 47 58 136 169 191 243 287 1
b 43 162 163 155 57 107 2 299 21 225 288 47 58 136 169 191 243 287 1
b 44 171 155 57 107 2 299 21 225 288 47 58 136 169 191 243 287 1
b 45 173 155 57 107 2 299 21 225 288 47 58 136 169 191 243 287 1
b 46 174 155 57 107 2 299 21 225 288 47 58 136 169 191 243 287 1
b 47 200 229 155 57 107 221 222 21 214 203 204 210 212 218 223 226 227 228 231 243 287 1
b 48 155 57 107 221 222 2 299 21 214 172 175 179 203 204 210 212 218 223 226 227 228 231 225 288 47 58 136 169 191 243 287 1
b 49 50 2 299 21 225 288 47 58 136 169 191 243 287 1
b 50 51 2 299 21 225 288 47 58 136 169 191 243 287 1
b 51 236 2 299 225 288 47 58 136 169 191 1
b 52 237 2 299 225 288 47 58 136 169 191 1
b 53 18 2 203 204 210 212 218 223 226 227 228 231 225 288 47 58 136 169 191 243 287 1
b 54 2 299 21 214 172 175 179 184 186 190 203 204 210 212 218 223 226 227 228 231 225 288 47 58 136 169 191 243 287 1
b 55 17 19 16 255 259 224 248 266 277 302 235 238 245 249 252 256 260 262 271 279 284 286 289 293 297 225 243 287 1
b 56 33 19 20 23 24 26 27 28 29 16 255 22 30 259 224 248 266 277 302 235 238 245 249 252 256 260 262 271 279 284 286 289 293 297 225 243 287 1
b 57 34 35 19 20 23 24 26 27 28 16 255 22 30 259 224 248 266 277 302 235 238 245 249 252 256 260 262 271 279 284 286 289 293 297 225 243 287 1
b 58 19 20 23 31 24 26 27 28 29 16 255 22 30 259 224 248 266 277 302 235 238 245 249 252 256 260 262 271 279 284 286 289 293 297 225 243 287 1
b 59 140 199 198 196 38 187 32 37 134 22 71 30 197 201 230 232 235 238 245 249 252 256 260 262 271 279 284 286 289 293 297 172 175 179 184 186 190 225 243 287 1
b 60 199 198 196 38 187 32 16 37 134 22 71 30 197 201 230 232 259 224 248 266 277 302 235 238 245 249 252 256 260 262 271 279 284 286 289 293 297 172 175 179 184 186 190 225 243 287 1
b 61 194 192 185 38 187 165 32 16 37 134 22 71 30 259 224 248 266 277 302 235 238 245 249 252 256 260 262 271 279 284 286 289 293 297 172 175 179 184 186 190 225 243 287 1
b 62 192 195 196 185 193 38 187 165 32 16 37 134 22 71 30 259 224 248 266 277 302 235 238 245 249 252 256 260 262 271 279 284 286 289 293 297 172 175 179 184 186 190 225 243 287 1
b 63 195 198 196 185 193 38 187 165 32 16 37 134 22 71 30 259 224 248 266 277 302 235 238 245 249 252 256 260 262 271 279 284 286 289 293 297 172 175 179 184 186 190 225 243 287 1
b 64 188 185 38 187 165 32 168 16 37 134 22 71 30 259 224 248 266 277 302 235 238 245 249 252 256 260 262 271 279 284 286 289 293 297 172 175 179 184 186 225 243 287 1
b 65 189 185 38 187 165 32 168 16 37 134 22 71 30 259 224 248 266 277 302 235 238 245 249 252 256 260 262 271 279 284 286 289 293 297 172 175 179 184 186 225 243 287 1
b 66 198 196 185 193 38 187 165 32 16 37 134 22 71 30 197 201 230 232 259 224 248 266 277 302 235 238 245 249 252 256 260 262 271 279 284 286 289 293 297 172 175 179 184 186 190 225 243 287 1
b 67 185 193 38 187 165 32 168 16 37 134 22 71 30 197 201 230 232 259 224 248 266 277 302 235 238 245 249 252 256 260 262 271 279 284 286 289 293 297 172 175 179 184 186 190 225 243 287 1
b 68 177 42 170 165 32 168 16 37 134 22 71 30 259 224 248 266 277 302 235 238 245 249 252 256 260 262 271 279 284 286 289 293 297 172 175 225 243 287 1
b 69 42 176 170 165 32 168 16 37 134 22 71 30 197 201 230 232 259 224 248 266 277 302 235 238 245 249 252 256 260 262 271 279 284 286 289 293 297 172 175 179 184 186 190 225 243 287 1
b 70 139 183 182 170 165 32 168 37 134 22 71 30 197 201 230 232 235 238 245 249 252 256 260 262 271 279 284 286 289 293 297 172 175 179 184 186 190 225 243 287 1
b 71 183 182 170 165 32 168 16 37 134 22 71 30 197 201 230 232 259 224 248 266 277 302 235 238 245 249 252 256 260 262 271 279 284 286 289 293 297 172 175 179 184 186 190 225 243 287 1
b 72 181 178 182 170 165 32 168 16 37 134 22 71 30 259 224 248 266 277 302 235 238 245 249 252 256 260 262 271 279 284 286 289 293 297 172 175 179 225 243 287 1
b 73 170 165 32 168 16 83 37 134 22 71 30 197 201 230 232 259 224 248 266 277 302 235 238 245 249 252 256 260 262 271 279 284 286 289 293 297 172 175 179 184 186 190 225 243 287 1
b 74 167 165 168 16 81 83 37 134 22 71 30 259 224 248 266 277 302 235 238 245 249 252 256 260 262 271 279 284 286 289 293 297 225 243 287 1
b 75 165 32 168 16 81 83 37 134 22 71 30 197 201 230 232 259 224 248 266 277 302 235 238 245 249 252 256 260 262 271 279 284 286 289 293 297 172 175 179 184 186 190 225 243 287 1
b 76 41 16 37 255 22 30 259 224 248 266 277 302 235 238 245 249 252 256 260 262 271 279 284 286 289 293 297 225 288 47 58 136 169 191 243 287 1
b 77 16 81 83 37 134 255 22 71 30 197 201 230 232 259 224 248 266 277 302 235 238 245 249 252 256 260 262 271 279 284 286 289 293 297 172 175 179 184 186 190 225 288 47 58 136 169 191 243 287 1
b 78 5 6 261 255 259 224 248 266 277 302 235 238 245 249 252 256 260 262 271 279 284 286 289 293 297 225 243 287 1
b 79 112 220 205 64 108 206 207 208 209 217 219 81 83 22 71 197 201 230 232 235 238 245 249 252 256 260 262 271 279 284 286 289 293 297 172 175 179 184 186 190 225 243 287 1
b 80 220 205 64 108 206 207 208 209 217 219 261 81 83 255 22 71 197 201 230 232 259 224 248 266 277 235 238 245 249 252 256 260 262 271 279 284 286 289 293 297 172 175 179 184 186 190 225 243 287 1
b 81 216 211 205 64 108 206 207 208 209 261 81 83 255 22 71 197 201 259 224 248 266 277 235 238 245 249 252 256 260 262 271 279 284 286 289 293 297 172 175 179 184 186 190 225 243 287 1
b 82 211 215 205 64 108 206 207 208 209 261 81 83 255 22 71 197 201 259 224 248 266 277 235 238 245 249 252 256 260 262 271 279 284 286 289 293 297 172 175 179 184 186 190 225 243 287 1
b 83 291 273 263 264 265 267 268 269 270 272 261 255 259 224 248 266 277 235 238 245 249 252 256 260 262 271 279 284 286 289 225 243 287 1
b 84 273 290 263 264 265 267 268 269 270 272 261 255 259 224 248 266 277 235 238 245 249 252 256 260 262 271 279 284 286 289 225 243 287 1
b 85 292 296 263 264 265 267 268 269 270 272 294 295 261 255 259 224 248 266 277 235 238 245 249 252 256 260 262 271 279 284 286 289 225 243 287 1
b 86 296 263 264 265 267 268 269 270 272 294 295 261 255 259 224 248 266 277 235 238 245 249 252 256 260 262 271 279 284 286 289 293 225 243 287 1
b 87 303 304 305 261 255 259 224 248 266 277 302 235 238 245 249 252 256 260 262 271 279 284 286 289 293 297 225 288 47 58 136 243 287 1
b 88 308 261 255 259 224 248 266 277 302 235 238 245 249 252 256 260 262 271 279 284 286 289 293 297 225 243 287 1
b 89 261 81 83 255 22 71 197 201 230 232 259 224 248 266 277 302 235 238 245 249 252 256 260 262 271 279 284 286 289 293 297 172 175 179 184 186 190 225 288 47 58 136 169 191 243 287 1
b 90 12 81 83 22 71 197 201 230 232 235 238 245 249 252 256 260 262 271 279 284 286 289 293 297 172 175 179 184 186 190 225 243 287 1
b 91 44 122 128 81 83 37 134 22 71 30 197 201 230 232 235 238 245 249 252 256 260 262 271 279 284 286 289 293 297 172 175 179 184 186 190 225 243 287 1
b 92 234 233 65 67 81 83 71 197 201 230 232 235 238 245 249 252 256 260 262 271 279 284 286 289 293 297 172 175 179 184 186 190 225 243 287 1
b 93 301 306 65 67 81 83 71 197 201 230 232 235 238 245 249 252 256 260 262 271 279 284 286 289 293 297 172 175 179 184 186 190 225 243 287 1
b 94 88 97 103 81 83 22 71 197 201 230 232 235 238 245 249 252 256 260 262 271 279 284 286 289 293 297 172 175 179 184 186 190 225 243 287 1
b 95 118 81 83 22 71 30 197 201 230 232 235 238 245 249 252 256 260 262 271 279 284 286 289 293 297 172 175 179 184 186 190 225 243 287 1
b 96 36 255 224 266 277 1
b 97 69 80 91 102 114 255 224 266 277 1
b 98 244 255 224 1
b 99 60 61 15 22 224 266 235 238 245 249 252 256 260 262 271 279 284 286 289 293 297 225 243 1
b 100 62 61 8 48 63 224 266 235 238 245 249 252 256 260 262 271 279 284 286 289 293 297 225 243 1
b 101 61 8 48 63 15 22 224 266 235 238 245 249 252 256 260 262 271 279 284 286 289 293 297 225 243 1
b 102 8 48 63 15 22 197 201 224 266 235 238 245 249 252 256 260 262 271 279 284 286 289 293 297 172 175 179 184 186 190 225 243 1
b 103 52 56 66 15 22 197 201 235 238 245 249 252 256 260 262 271 279 284 286 289 293 297 172 175 179 184 186 190 225 243 1
b 104 56 66 15 22 197 201 224 266 235 238 245 249 252 256 260 262 271 279 284 286 289 293 297 172 175 179 184 186 190 225 243 1
b 105 68 53 15 22 224 266 235 238 245 249 252 256 260 262 271 279 284 286 289 293 297 225 243 1
b 106 53 55 15 22 197 201 230 224 266 235 238 245 249 252 256 260 262 271 279 284 286 289 293 297 172 175 179 184 186 190 225 243 1
b 107 55 54 15 22 197 201 230 224 266 235 238 245 249 252 256 260 262 271 279 284 286 289 293 297 172 175 179 184 186 190 225 243 1
b 108 15 22 71 30 197 201 230 232 224 266 235 238 245 249 252 256 260 262 271 279 284 286 289 293 297 172 175 179 184 186 190 225 243 287 1
b 109 79 85 82 86 92 94 59 70 72 73 74 75 76 77 78 87 89 90 93 22 71 30 259 224 248 266 277 235 238 245 249 252 256 260 262 271 279 284 286 289 293 297 225 243 287 1
b 110 95 92 94 59 70 72 73 74 75 76 77 78 87 89 90 93 22 71 30 259 224 248 266 277 235 238 245 249 252 256 260 262 271 279 284 286 289 293 297 225 243 287 1
b 111 164 166 59 22 71 30 197 201 230 232 235 238 245 249 252 256 260 262 271 279 284 286 289 293 297 172 175 179 184 186 190 225 243 287 1
b 112 59 70 72 73 74 75 76 77 78 87 89 90 93 22 71 30 197 201 230 232 259 224 248 266 277 235 238 245 249 252 256 260 262 271 279 284 286 289 293 297 172 175 179 184 186 190 225 243 287 1
b 113 121 119 120 22 71 30 259 224 248 266 277 302 235 238 245 249 252 256 260 262 271 279 284 286 289 293 297 225 243 287 1
b 114 123 124 119 120 22 71 30 259 224 248 266 277 302 235 238 245 249 252 256 260 262 271 279 284 286 289 293 297 225 243 287 1
b 115 124 126 119 120 22 71 30 259 224 248 266 277 302 235 238 245 249 252 256 260 262 271 279 284 286 289 293 297 225 243 287 1
b 116 132 130 126 119 22 71 30 259 224 248 266 277 235 238 245 249 252 256 260 262 271 279 284 286 289 293 297 225 243 287 1
b 117 130 131 126 119 22 71 30 259 224 248 266 277 235 238 245 249 252 256 260 262 271 279 284 286 289 293 297 225 243 287 1
b 118 149 152 156 157 159 160 161 154 151 153 22 71 30 197 201 230 232 235 238 245 249 252 256 260 262 271 279 284 286 289 293 297 172 175 179 184 186 190 225 243 287 1
b 119 141 142 143 144 145 146 148 157 159 160 161 154 151 153 119 120 22 71 30 259 224 248 266 277 302 235 238 245 249 252 256 260 262 271 279 284 286 289 293 297 225 243 287 1
b 120 157 159 160 161 154 151 153 119 120 22 71 30 197 201 230 232 259 224 248 266 277 302 235 238 245 249 252 256 260 262 271 279 284 286 289 293 297 172 175 179 184 186 190 225 243 287 1
b 121 133 119 22 71 30 259 224 248 266 277 235 238 245 249 252 256 260 262 271 279 284 286 289 293 297 225 243 287 1
b 122 238 245 249 252 256 260 262 271 279 284 286 289 293 297 172 175 179 184 186 190 203 225 288 47 58 136 169 191 243 287 1
b 123 245 249 252 256 260 262 271 279 284 286 289 293 297 172 175 179 184 186 190 203 204 225 288 47 58 136 169 191 243 287 1
b 124 249 252 256 260 262 271 279 284 286 289 293 297 172 175 179 184 186 190 203 204 210 225 288 47 58 136 169 191 243 287 1
b 125 252 256 260 262 271 279 284 286 289 293 297 172 175 179 184 186 190 203 204 210 212 225 288 47 58 136 169 191 243 287 1
b 126 256 260 262 271 279 284 286 289 293 297 172 175 179 184 186 190 203 204 210 212 218 225 288 47 58 136 169 191 243 287 1
b 127 260 262 271 279 284 286 289 293 297 172 175 179 184 186 190 203 204 210 212 218 223 225 288 47 58 136 169 191 243 287 1
b 128 262 271 279 284 286 289 293 297 172 175 179 184 186 190 203 204 210 212 218 223 226 225 288 47 58 136 169 191 243 287 1
b 129 271 279 284 286 289 293 297 172 175 179 184 186 190 203 204 210 212 218 223 226 227 225 288 47 58 136 169 191 243 287 1
b 130 279 284 286 289 293 297 172 175 179 184 186 190 203 204 210 212 218 223 226 227 228 231 225 288 47 58 136 169 191 243 287 1
1 55
55 56
56 58
56 57
58 77
77 89
77 75
75 73
73 69
73 71
75 67
67 66
66 60
66 63
63 62
62 61
67 64
67 65
60 59
89 80
80 81
81 82
80 79
71 70
71 72
67 120
120 118
69 68
71 112
112 109
109 110
120 119
77 76
77 91
75 74
71 108
77 95
80 90
80 94
112 111
80 92
92 93
108 106
106 107
89 87
108 102
108 104
77 122
120 113
120 114
114 115
104 103
122 123
123 124
124 125
125 126
126 127
127 128
128 129
129 130
115 116
116 117
113 121
89 88
88 78
130 54
54 48
80 86
86 85
86 83
83 84
102 101
101 100
101 99
106 105
54 53
48 47
48 44
48 46
48 45
48 31
48 43
43 42
43 38
38 36
38 37
38 39
39 32
32 33
39 35
35 34
42 40
40 41
31 5
5 6
5 7
5 8
31 23
31 24
31 25
31 26
31 27
31 28
31 29
31 30
45 50
31 11
31 12
31 13
31 14
31 15
31 16
31 17
31 18
31 20
20 21
21 22
20 19
31 49
31 10
31 9
45 51
45 52
31 4
4 3
4 2
56 97
83 96
97 98
